files/upTests/matrixes2/0006.eprime.solution
language ESSENCE' 1.0
$ minion Nodes: 1
$ minion TotalTime: 0.002558
$ Savile Row TotalTime: 0.994
letting x_SetOccurrence be [[true, false, false;int(6..8)], 
[false, true, true;int(6..8)];int(1..2)]
letting x_SetExplicitVarSizeWithDefault be [[6, 9, 9;int(1..3)], 
[7, 8, 9;int(1..3)];int(1..2)]
